rand_21
0 295 278 283 206 84 268 150 248 236 113 75 43 170 223 27 65 229 105 194 296 254 227 242 226 80 276 196 69 251 56 271 8 20 252 48 198 279 87 137 193 71 144 233 74 47 118 249 179 267 259 92 158 122 82 192 117 50 171 143 26 68 129 3 21 246 269 89 101 67 78 195 225 214 28 41 114 189 205 224 210 93 99 40 235 201 282 146 243 218 287 15 3 232 73 221 16 237 164 36 166 202 94 17 58 96 125 79 45 222 234 238 197 86 12 115 162 263 274 240 204 177 121 132 286 231 90 148 184 178 289 29 119 262 14 53 25 185 83 63 183 102 290 39 301 245 199 91 12 24 186 297 138 288 154 112 76 18 108 275 46 247 51 30 152 211 123 149 182 127 77 134 135 244 31 175 213 160 10 270 44 62 35 294 57 260 81 72 200 298 208 111 151 265 64 55 280 285 168 70 130 42 215 258 255 159 250 98 1 13 219 61 188 85 33 97 207 284 212 190 0